(set-info :source |printed by MathSAT|)
(declare-fun call_excludes2.excludes () Bool)
(declare-fun second () Bool)
(declare-fun call_voiture.second () Bool)
(declare-fun speed () Int)
(declare-fun call_Sofar.flby () Bool)
(declare-fun flby () Bool)
(declare-fun call_voiture.ite2 () Int)
(declare-fun stop () Bool)
(declare-fun meter () Bool)
(declare-fun call_voiture.flby6 () Int)
(declare-fun call_voiture.flby5 () Int)
(declare-fun move () Bool)
(declare-fun param_s () Bool)
(declare-fun param_m () Bool)
(declare-fun time () Int)
(declare-fun call_voiture.flby4 () Int)
(declare-fun dist () Int)
(declare-fun call_voiture.meter () Bool)
(declare-fun toofast () Bool)
(declare-fun call_voiture.dist () Int)
(declare-fun call_voiture.move () Bool)
(declare-fun call_voiture.flby2 () Bool)
(declare-fun _OK_ () Bool)
(declare-fun call_Sofar.Sofar () Bool)
(declare-fun env () Bool)
(declare-fun call_voiture.flby3 () Bool)
(declare-fun call_voiture.ite3 () Int)
(declare-fun bump () Bool)
(declare-fun call_voiture.toofast () Bool)
(declare-fun call_voiture.flby () Bool)
(declare-fun call_voiture.speed () Int)
(declare-fun call_voiture.bump () Bool)
(declare-fun call_voiture.stop () Bool)
(declare-fun call_voiture.time () Int)
(define-fun .def_369 () Bool (= call_Sofar.flby call_Sofar.Sofar))
(define-fun .def_365 () Bool (and param_s param_m))
(define-fun .def_366 () Bool (not .def_365))
(define-fun .def_367 () Bool (= call_excludes2.excludes .def_366))
(define-fun .def_361 () Bool (= call_voiture.flby call_voiture.meter))
(define-fun .def_359 () Bool (= call_voiture.flby2 call_voiture.second))
(define-fun .def_356 () Bool (= call_voiture.flby3 call_voiture.move))
(define-fun .def_353 () Bool (= call_voiture.ite3 0))
(define-fun .def_349 () Bool (not call_voiture.move))
(define-fun .def_350 () Bool (or call_voiture.second .def_349))
(define-fun .def_352 () Bool (not .def_350))
(define-fun .def_354 () Bool (or .def_352 .def_353))
(define-fun .def_348 () Bool (= call_voiture.ite2 call_voiture.ite3))
(define-fun .def_351 () Bool (or .def_348 .def_350))
(define-fun .def_355 () Bool (and .def_351 .def_354))
(define-fun .def_357 () Bool (and .def_355 .def_356))
(define-fun .def_344 () Bool (= call_voiture.flby6 call_voiture.time))
(define-fun .def_342 () Bool (= call_voiture.flby5 call_voiture.speed))
(define-fun .def_340 () Bool (= call_voiture.flby4 call_voiture.dist))
(define-fun .def_337 () Bool (= call_voiture.dist 10))
(define-fun .def_338 () Bool (= call_voiture.bump .def_337))
(define-fun .def_334 () Bool (<= 4 call_voiture.time))
(define-fun .def_335 () Bool (= call_voiture.stop .def_334))
(define-fun .def_331 () Bool (<= 3 call_voiture.speed))
(define-fun .def_332 () Bool (= call_voiture.toofast .def_331))
(define-fun .def_329 () Bool (= env call_Sofar.Sofar))
(define-fun .def_325 () Bool (= meter call_voiture.meter))
(define-fun .def_321 () Bool (= second call_voiture.second))
(define-fun .def_317 () Bool (= move call_voiture.move))
(define-fun .def_313 () Bool (= time call_voiture.time))
(define-fun .def_309 () Bool (= speed call_voiture.speed))
(define-fun .def_305 () Bool (= dist call_voiture.dist))
(define-fun .def_301 () Bool (= bump call_voiture.bump))
(define-fun .def_297 () Bool (= stop call_voiture.stop))
(define-fun .def_293 () Bool (= toofast call_voiture.toofast))
(define-fun .def_290 () Bool (= flby _OK_))
(define-fun .def_294 () Bool (and .def_290 .def_293))
(define-fun .def_298 () Bool (and .def_294 .def_297))
(define-fun .def_302 () Bool (and .def_298 .def_301))
(define-fun .def_306 () Bool (and .def_302 .def_305))
(define-fun .def_310 () Bool (and .def_306 .def_309))
(define-fun .def_314 () Bool (and .def_310 .def_313))
(define-fun .def_318 () Bool (and .def_314 .def_317))
(define-fun .def_322 () Bool (and .def_318 .def_321))
(define-fun .def_326 () Bool (and .def_322 .def_325))
(define-fun .def_330 () Bool (and .def_326 .def_329))
(define-fun .def_333 () Bool (and .def_330 .def_332))
(define-fun .def_336 () Bool (and .def_333 .def_335))
(define-fun .def_339 () Bool (and .def_336 .def_338))
(define-fun .def_341 () Bool (and .def_339 .def_340))
(define-fun .def_343 () Bool (and .def_341 .def_342))
(define-fun .def_345 () Bool (and .def_343 .def_344))
(define-fun .def_358 () Bool (and .def_345 .def_357))
(define-fun .def_360 () Bool (and .def_358 .def_359))
(define-fun .def_362 () Bool (and .def_360 .def_361))
(define-fun .def_368 () Bool (and .def_362 .def_367))
(define-fun .def_370 () Bool (and .def_368 .def_369))
(define-fun .def_287 () Bool (= call_excludes2.excludes call_Sofar.flby))
(define-fun .def_283 () Bool (= call_voiture.flby6 0))
(define-fun .def_280 () Bool (= call_voiture.flby5 0))
(define-fun .def_277 () Bool (= call_voiture.flby4 0))
(define-fun .def_272 () Bool (not call_voiture.flby2))
(define-fun .def_268 () Bool (not call_voiture.flby))
(define-fun .def_270 () Bool (and .def_268 flby))
(define-fun .def_273 () Bool (and .def_270 .def_272))
(define-fun .def_275 () Bool (and .def_273 call_voiture.flby3))
(define-fun .def_278 () Bool (and .def_275 .def_277))
(define-fun .def_281 () Bool (and .def_278 .def_280))
(define-fun .def_284 () Bool (and .def_281 .def_283))
(define-fun .def_288 () Bool (and .def_284 .def_287))
(define-fun .def_371 () Bool (and .def_288 .def_370))
(assert .def_371)
